NPROCS=0
This instance is clustered!
Gurobi Optimizer version 9.0.0 build v9.0.0rc2 (linux64)
Optimize a model with 28 rows, 197 columns and 392 nonzeros
Model fingerprint: 0x7129212a
Variable types: 1 continuous, 196 integer (196 binary)
Coefficient statistics:
  Matrix range     [1e+00, 1e+00]
  Objective range  [1e+00, 2e+02]
  Bounds range     [1e+00, 1e+00]
  RHS range        [1e+00, 1e+00]
Presolve removed 2 rows and 39 columns
Presolve time: 0.00s
Presolved: 26 rows, 158 columns, 314 nonzeros
Variable types: 1 continuous, 157 integer (157 binary)

Root relaxation: objective 2.145099e+02, 20 iterations, 0.00 seconds

    Nodes    |    Current Node    |     Objective Bounds      |     Work
 Expl Unexpl |  Obj  Depth IntInf | Incumbent    BestBd   Gap | It/Node Time

     0     0  318.23671    0   12          -  318.23671      -     -    0s
H    0     0                     601.9978876  318.23671  47.1%     -    0s
     0     0  351.85163    0    6  601.99789  351.85163  41.6%     -    0s
H    0     0                     390.8985414  351.85163  10.0%     -    0s
H    0     0                     390.3917268  351.85163  9.87%     -    0s
     0     0  352.87191    0   12  390.39173  352.87191  9.61%     -    0s
     0     0  352.87191    0   12  390.39173  352.87191  9.61%     -    0s
     0     0  352.87191    0    6  390.39173  352.87191  9.61%     -    0s
     0     0  352.87191    0   12  390.39173  352.87191  9.61%     -    0s
     0     0  353.10094    0   12  390.39173  353.10094  9.55%     -    0s
     0     0  354.23808    0   12  390.39173  354.23808  9.26%     -    0s
     0     0  354.37323    0   19  390.39173  354.37323  9.23%     -    0s
     0     0  354.37991    0   19  390.39173  354.37991  9.22%     -    0s
     0     0  354.37991    0   19  390.39173  354.37991  9.22%     -    0s
     0     2  354.37991    0   19  390.39173  354.37991  9.22%     -    0s

Cutting planes:
  Gomory: 1
  MIR: 2
  Zero half: 2
  RLT: 1
  Lazy constraints: 317

Explored 1176 nodes (3952 simplex iterations) in 0.28 seconds
Thread count was 12 (of 12 available processors)

Solution count 3: 390.392 390.899 601.998 

Optimal solution found (tolerance 1.00e-04)
Best objective 3.903917267543e+02, best bound 3.903917267543e+02, gap 0.0000%

User-callback calls 2959, time in user-callback 0.02 sec
/projects/academic/josewalt/caigao/RRARP_BD/BendersDecomp/ret/model_outs/n_12_e_8_algo_2.out
 =====>>>>> Solution is written to file in <../ret/model_outs> !!!
===>> All Done!
